
Gurobi 10.0.1 (win64) logging started Mon Oct  9 07:42:49 2023

Set parameter LogFile to value "./results//log/FTQL_makespan_heurFalse.log"
Gurobi Optimizer version 10.0.1 build v10.0.1rc0 (win64)

CPU model: AMD Ryzen 7 3700X 8-Core Processor, instruction set [SSE2|AVX|AVX2]
Thread count: 8 physical cores, 16 logical processors, using up to 16 threads

Optimize a model with 195 rows, 625 columns and 664 nonzeros
Model fingerprint: 0x47df7418
Variable types: 0 continuous, 625 integer (600 binary)
Coefficient statistics:
  Matrix range     [1e+00, 1e+07]
  Objective range  [1e+00, 1e+00]
  Bounds range     [1e+00, 1e+00]
  RHS range        [1e+00, 3e+07]
Presolve removed 78 rows and 552 columns
Presolve time: 0.01s
Presolved: 117 rows, 73 columns, 332 nonzeros
Variable types: 0 continuous, 73 integer (49 binary)

Root relaxation: objective 5.088000e+04, 37 iterations, 0.00 seconds (0.00 work units)

    Nodes    |    Current Node    |     Objective Bounds      |     Work
 Expl Unexpl |  Obj  Depth IntInf | Incumbent    BestBd   Gap | It/Node Time

     0     0 50880.0000    0   27          - 50880.0000      -     -    0s
H    0     0                    92528.000000 50880.0000  45.0%     -    0s
H    0     0                    92527.000000 50880.0000  45.0%     -    0s
     0     0 64720.0000    0   39 92527.0000 64720.0000  30.1%     -    0s
H    0     0                    92526.000000 64720.0000  30.1%     -    0s
H    0     0                    90235.000000 64720.0000  28.3%     -    0s
H    0     0                    84098.000000 64720.0000  23.0%     -    0s
H    0     0                    82810.000000 64720.0000  21.8%     -    0s
     0     0 64720.0000    0   41 82810.0000 64720.0000  21.8%     -    0s
     0     0 64799.0000    0   24 82810.0000 64799.0000  21.7%     -    0s
     0     0 64799.0000    0   28 82810.0000 64799.0000  21.7%     -    0s
H    0     0                    80239.000000 64799.0000  19.2%     -    0s
H    0     0                    76118.000000 64799.0000  14.9%     -    0s
     0     0 64799.0000    0   27 76118.0000 64799.0000  14.9%     -    0s
     0     0 64800.2830    0   30 76118.0000 64800.2830  14.9%     -    0s
     0     0 64846.0734    0   36 76118.0000 64846.0734  14.8%     -    0s
     0     0 64874.9596    0   38 76118.0000 64874.9596  14.8%     -    0s
     0     0 64874.9596    0   38 76118.0000 64874.9596  14.8%     -    0s
     0     0 64879.0135    0   39 76118.0000 64879.0135  14.8%     -    0s
     0     0 64879.0135    0   38 76118.0000 64879.0135  14.8%     -    0s
H    0     0                    74889.000000 64879.0135  13.4%     -    0s
     0     0 64879.0135    0   39 74889.0000 64879.0135  13.4%     -    0s
     0     0 64879.0135    0   39 74889.0000 64879.0135  13.4%     -    0s
     0     2 64879.0135    0   38 74889.0000 64879.0135  13.4%     -    0s
H  453   133                    74452.000000 66874.8208  10.2%   9.6    0s

Cutting planes:
  Implied bound: 44
  MIR: 11
  Inf proof: 1
  RLT: 9
  Relax-and-lift: 36

Explored 1467 nodes (12101 simplex iterations) in 0.84 seconds (0.07 work units)
Thread count was 16 (of 16 available processors)

Solution count 10: 74452 74889 76118 ... 92528

Optimal solution found (tolerance 1.00e-04)
Best objective 7.445200000000e+04, best bound 7.445200000000e+04, gap 0.0000%
Warning: constraint name "precedence between 0,0 to 1,1 if x_[0,0,1,1,1]=0, i.e. 1,1 before 0,0" has a space
Warning: constraint name "precedence between 0,0 to 1,1 if x_[0,0,1,1,1]=0, i.e. 1,1 before 0,0" has a space
Warning: default constraint names used to write mps file
